! RKS B3LYP 6-31+G** NormalSCF Opt NOSOSCF CHELPG

*xyz 0 1
S -0.84310 -0.38232 0.38444
C -1.03150 1.22058 1.00804
C -0.00300 2.08698 0.62904
C 0.94360 1.42698 -0.18106
H 1.82790 1.90718 -0.58836
C 0.65770 0.08528 -0.42326
C 1.43580 -0.83282 -1.21616
C 1.30280 -2.17962 -1.49846
C 2.32490 -2.71052 -2.33906
C 3.26210 -1.80582 -2.72776
H 4.13250 -1.94082 -3.35506
C -2.07160 1.78368 1.84964
C -1.94050 3.12658 2.19574
C -3.02040 3.56038 3.01734
H -3.12950 4.56668 3.40784
C -3.93420 2.56748 3.27984
H -4.83810 2.62628 3.87124
C 0.37790 -3.28082 -1.15996
O -0.62940 -3.28312 -0.47176
N 0.89640 -4.42022 -1.81696
C 2.06520 -4.15672 -2.54906
O 2.68540 -4.98302 -3.19416
C 0.28070 -5.73512 -1.74946
H -0.52530 -5.68602 -1.01606
H 1.02180 -6.47602 -1.44616
H -0.12320 -6.02312 -2.72566
S -3.50050 1.06018 2.52454
S 2.89140 -0.24312 -2.05156
Si -0.35510 3.78158 1.39734
C -0.66080 5.13148 0.11744
H -1.42350 4.82078 -0.60356
H 0.25530 5.36478 -0.43736
H -1.00230 6.05438 0.60044
C 0.94660 4.32068 2.65234
H 1.12640 3.53388 3.39064
H 1.89730 4.54808 2.15684
H 0.62640 5.22118 3.18914
*